evaluation/lemmas/list/rotate.log
11:26:39 [WARN] Collecting statistics
11:26:39 [WARN]  ex is: zero
11:26:39 [WARN]  ex is: (succ zero)
11:26:39 [WARN]  ex is: (succ (succ zero))
11:26:39 [WARN]  ex is: nil
11:26:39 [WARN]  ex is: (cons autovar_nat_0 nil)
11:26:39 [WARN]  ex is: (cons autovar_nat_1 (cons autovar_nat_0 nil))
11:26:39 [WARN] Proof mode: false
11:26:39 [WARN]  ex is: zero
11:26:39 [WARN]  ex is: (succ zero)
11:26:39 [WARN]  ex is: (succ (succ zero))
11:26:39 [WARN]  ex is: nil
11:26:39 [WARN]  ex is: (cons autovar_nat_0 nil)
11:26:39 [WARN]  ex is: (cons autovar_nat_1 (cons autovar_nat_0 nil))
11:26:39 [WARN] Proof mode: false
11:26:39 [WARN] proved: (rotate zero ?ts_ph_list_0) => ?ts_ph_list_0
11:26:39 [WARN] proved: (append ?ts_ph_list_0 nil) => ?ts_ph_list_0
11:26:39 [WARN] proved: (add ?ts_ph_nat_0 zero) => ?ts_ph_nat_0
11:26:39 [WARN] proved: (leq ?ts_ph_nat_0 ?ts_ph_nat_0) => true
11:27:11 [WARN] proved: (reverse ?ts_ph_list_0) => (rotate (length ?ts_ph_list_0) ?ts_ph_list_0)
11:27:11 [WARN] proved: (rotate (length ?ts_ph_list_0) ?ts_ph_list_0) => (reverse ?ts_ph_list_0)
11:27:11 [WARN] proved: (succ ?ts_ph_nat_0) => (add ?ts_ph_nat_0 (succ zero))
11:27:11 [WARN] proved: (add ?ts_ph_nat_0 (succ zero)) => (succ ?ts_ph_nat_0)
11:27:11 [WARN] proved: (rotate ?ts_ph_nat_0 (cons ?ts_ph_nat_1 nil)) => (cons ?ts_ph_nat_1 nil)
11:27:11 [WARN] proved: (leq (add ?ts_ph_nat_0 ?ts_ph_nat_1) ?ts_ph_nat_0) => (leq ?ts_ph_nat_1 zero)
11:27:11 [WARN] proved: (leq ?ts_ph_nat_0 zero) => (leq (add ?ts_ph_nat_0 ?ts_ph_nat_0) zero)
11:27:11 [WARN] proved: (leq (add ?ts_ph_nat_0 ?ts_ph_nat_0) zero) => (leq ?ts_ph_nat_0 zero)
11:27:11 [WARN] proved: (leq ?ts_ph_nat_0 (add ?ts_ph_nat_0 ?ts_ph_nat_1)) => (leq ?ts_ph_nat_0 (add ?ts_ph_nat_0 ?ts_ph_nat_0))
11:27:11 [WARN] proved: (leq (add ?ts_ph_nat_0 ?ts_ph_nat_1) (succ ?ts_ph_nat_0)) => (leq ?ts_ph_nat_1 (succ zero))
11:27:11 [WARN] proved: (reverse (cons ?ts_ph_nat_0 ?ts_ph_list_0)) => (rotate (length ?ts_ph_list_0) (cons ?ts_ph_nat_0 ?ts_ph_list_0))
11:27:11 [WARN] proved: (rotate (length ?ts_ph_list_0) (cons ?ts_ph_nat_0 ?ts_ph_list_0)) => (reverse (cons ?ts_ph_nat_0 ?ts_ph_list_0))
11:27:11 [WARN] proved: (leq (succ zero) ?ts_ph_nat_0) => (leq (succ zero) (add ?ts_ph_nat_0 ?ts_ph_nat_0))
11:27:11 [WARN] proved: (leq (succ zero) (add ?ts_ph_nat_0 ?ts_ph_nat_0)) => (leq (succ zero) ?ts_ph_nat_0)
11:27:11 [WARN] proved: (leq (add ?ts_ph_nat_0 ?ts_ph_nat_0) (succ zero)) => (leq (add ?ts_ph_nat_0 ?ts_ph_nat_0) zero)
11:27:11 [WARN] proved: (leq (add ?ts_ph_nat_0 ?ts_ph_nat_0) zero) => (leq (add ?ts_ph_nat_0 ?ts_ph_nat_0) (succ zero))
11:27:12 [WARN] proved: (succ (add ?ts_ph_nat_0 ?ts_ph_nat_1)) => (add ?ts_ph_nat_0 (succ ?ts_ph_nat_1))
11:27:12 [WARN] proved: (add ?ts_ph_nat_0 (succ ?ts_ph_nat_1)) => (succ (add ?ts_ph_nat_0 ?ts_ph_nat_1))
11:27:13 [WARN] proved: (add ?ts_ph_nat_0 ?ts_ph_nat_1) => (add ?ts_ph_nat_1 ?ts_ph_nat_0)
11:27:13 [WARN] proved: (add ?ts_ph_nat_1 ?ts_ph_nat_0) => (add ?ts_ph_nat_0 ?ts_ph_nat_1)
11:27:13 [WARN] proved: (append (append ?ts_ph_list_0 ?ts_ph_list_1) ?ts_ph_list_2) => (append ?ts_ph_list_0 (append ?ts_ph_list_1 ?ts_ph_list_2))
11:27:13 [WARN] proved: (append ?ts_ph_list_0 (append ?ts_ph_list_1 ?ts_ph_list_2)) => (append (append ?ts_ph_list_0 ?ts_ph_list_1) ?ts_ph_list_2)
11:27:16 [WARN] proved: (add ?ts_ph_nat_1 (add ?ts_ph_nat_0 ?ts_ph_nat_2)) => (add ?ts_ph_nat_0 (add ?ts_ph_nat_1 ?ts_ph_nat_2))
11:27:16 [WARN] proved: (add ?ts_ph_nat_0 (add ?ts_ph_nat_1 ?ts_ph_nat_2)) => (add ?ts_ph_nat_1 (add ?ts_ph_nat_0 ?ts_ph_nat_2))
11:27:32 [WARN] proved: (add (length ?ts_ph_list_0) (length ?ts_ph_list_1)) => (length (append ?ts_ph_list_0 ?ts_ph_list_1))
11:27:32 [WARN] proved: (length (append ?ts_ph_list_0 ?ts_ph_list_1)) => (add (length ?ts_ph_list_0) (length ?ts_ph_list_1))
11:29:42 [WARN] proved: (length ?ts_ph_list_0) => (length (reverse ?ts_ph_list_0))
11:29:42 [WARN] proved: (length (reverse ?ts_ph_list_0)) => (length ?ts_ph_list_0)
